(set-logic QF_S)
(declare-fun var0 () String)
(declare-fun var1 () String)
(declare-fun var2 () Int)
(declare-fun var3 () String)
(declare-fun var4 () Int)
(declare-fun var5 () String)
(declare-fun var6 () Int)
(declare-fun var7 () Int)
(assert (str.contains var0 var1))
(assert (> (str.indexof (str.at "(" var2) (str.at var3 var4) (str.len var5)) (str.to.int var0)))
(assert (< (str.to.int var5) (str.to.int (str.replace var5 var3 var0))))
(assert (str.contains (str.at var1 var6) (str.substr "J5bMO?" var7 179)))
(check-sat)